33D32945 STP File, STP Format Version 1.0

SECTION Comment
Name    "i080-333"
Creator "Cees Duin"
Remark  "Incidence graph"
END

SECTION Graph
Nodes 80
Edges 160
E 1 11 301
E 1 33 191
E 1 39 203
E 1 46 211
E 1 51 201
E 1 58 193
E 1 60 200
E 1 62 194
E 1 67 210
E 1 70 201
E 1 77 200
E 1 78 203
E 2 49 204
E 2 52 205
E 3 9 294
E 3 11 297
E 3 60 199
E 4 14 301
E 4 15 300
E 4 47 201
E 4 52 199
E 4 73 200
E 5 17 301
E 5 24 214
E 5 26 204
E 5 28 201
E 5 29 191
E 5 42 202
E 6 31 199
E 7 28 201
E 7 38 208
E 7 60 197
E 7 64 193
E 8 62 198
E 8 66 201
E 9 34 199
E 9 35 202
E 10 34 197
E 10 42 202
E 10 59 207
E 11 24 206
E 11 27 206
E 11 48 193
E 11 59 183
E 11 64 208
E 11 67 198
E 11 79 200
E 12 42 198
E 12 77 197
E 13 28 200
E 13 33 207
E 13 34 196
E 13 36 203
E 13 41 203
E 13 49 191
E 13 78 188
E 14 32 201
E 14 47 198
E 14 61 207
E 14 64 199
E 14 68 191
E 14 69 196
E 15 41 198
E 15 74 197
E 16 29 202
E 17 23 199
E 17 43 199
E 17 52 197
E 17 79 198
E 18 25 196
E 18 44 205
E 19 47 195
E 19 72 202
E 20 28 195
E 20 50 194
E 20 71 199
E 21 35 98
E 21 64 96
E 22 27 100
E 22 31 98
E 22 41 103
E 22 55 95
E 22 70 103
E 23 30 103
E 23 38 98
E 23 40 102
E 23 44 105
E 23 48 101
E 23 57 105
E 24 59 100
E 25 44 99
E 25 45 99
E 25 54 98
E 25 57 104
E 25 65 98
E 25 68 97
E 25 77 106
E 26 60 101
E 27 36 99
E 27 45 100
E 27 58 96
E 27 61 107
E 27 66 96
E 28 34 101
E 28 36 102
E 28 39 97
E 30 62 96
E 30 73 97
E 31 42 99
E 31 46 106
E 31 64 107
E 32 72 104
E 34 72 91
E 35 44 105
E 35 51 99
E 35 62 98
E 36 50 96
E 37 41 98
E 37 55 100
E 38 47 104
E 38 55 104
E 39 55 100
E 39 56 94
E 39 72 103
E 40 62 100
E 41 52 93
E 41 61 102
E 41 79 100
E 42 53 99
E 42 58 96
E 42 76 101
E 43 46 101
E 44 49 97
E 45 63 102
E 45 68 96
E 46 60 98
E 49 64 105
E 50 62 102
E 50 68 105
E 51 79 103
E 52 53 103
E 52 57 100
E 52 73 104
E 52 77 99
E 54 66 94
E 56 68 95
E 56 79 92
E 58 68 98
E 60 80 94
E 61 68 105
E 62 71 94
E 63 79 95
E 64 73 98
E 64 75 102
E 65 68 104
E 66 69 91
E 66 71 109
E 68 79 102
E 69 77 93
E 69 78 95
END

SECTION Terminals
Terminals 20
T 1
T 2
T 3
T 4
T 5
T 6
T 7
T 8
T 9
T 10
T 11
T 12
T 13
T 14
T 15
T 16
T 17
T 18
T 19
T 20
END

EOF
